SimulationType                MonteCarlo
NumberOfCycles                N_cycles
NumberOfInitializationCycles  N_init
PrintPropertiesEvery          N_print
RestartFile                   no

Forcefield                    FORCE_FIELD

Component 0 MoleculeName                     MOLECULE
            MoleculeDefinition               TraPPE
            TranslationProbability           1.0
            RotationProbability              ROTPROBA
            ReinsertionProbability           1.0
            CreateNumberOfMolecules          1
