SimulationType                MolecularDynamics
NumberOfCycles                N_cycles
NumberOfInitializationCycles  N_init
NumberofEquilibrationCycles   N_init
PrintEvery                    N_print
PrintPropertiesEvery          N_print
RestartFile                   RESTART
ContinueAfterCrash            RESTART
WriteBinaryRestartFileEvery   500000

Ensemble                      NVT
TimeStep		              TIMESTEP

Forcefield                    FORCE_FIELD

Component 0 MoleculeName                     MOLECULE
            MoleculeDefinition               TraPPE
            BlockPockets                     yes
            BlockPocketsFileName             Arg
            CreateNumberOfMolecules          1
