SimulationType                MonteCarlo
NumberOfCycles                N_cycles
NumberOfInitializationCycles  N_init
PrintPropertiesEvery          N_print
RestartFile                   no

Forcefield                    FORCE_FIELD

Framework 0
ChargeMethod EWALD
FrameworkName Arg
CutOffVDW CUTOFF
UnitCells UNITCELL
ExternalTemperature TEMPERATURE
ExternalPressure PRESSURES

EXTRA

NumberOfGrids N_ATOMS
GridTypes ATOMS
SpacingVDWGrid 0.15
SpacingCoulombGrid 0.15
UseTabularGrid yes

Component 0 MoleculeName                     MOLECULE
            MoleculeDefinition               TraPPE
            TranslationProbability           1.0
            RotationProbability              0.0
            ReinsertionProbability           1.0
            SwapProbability                  1.0
            CreateNumberOfMolecules          0
