SimulationType                MonteCarlo
NumberOfCycles                N_cycles
NumberOfInitializationCycles  N_init
PrintPropertiesEvery          N_print
RestartFile                   no

Forcefield                    FORCEFIELD
EXTRA

Framework 0
ChargeMethod EWALD
FrameworkName Arg
CutOffVDW CUTOFF
UnitCells UNITCELL
ExternalTemperature 298.0

Component 0 MoleculeName                     MOLECULE
            MoleculeDefinition               TraPPE
            WidomInsertion                   1.0
            CreateNumberOfMolecules          0
