SimulationType                MonteCarlo
NumberOfCycles                N_cycles
NumberOfInitializationCycles  N_init
PrintEvery                    N_print
RestartFile                   RESTART

Forcefield                    FORCE_FIELD
