SimulationType                MonteCarlo
NumberOfCycles                0
NumberOfInitializationCycles  0
PrintPropertiesEvery          0
RestartFile                   RESTART_MODE 

Forcefield                    UFF

Ensemble NVT

Framework 0
FrameworkName Arg
UnitCells UNITCELL 
ExternalTemperature 298.0
ExternalPressure POINT_NUMBER

UseTabularGrid yes
NumberOfGrids N_atoms
ChargeMethod None
GridTypes ATOMS
SpacingVDWGrid 0.1
CutOffVDW 12

Component 0 MoleculeName                     MOLECULE
            MoleculeDefinition               TraPPE
            CreateNumberOfMolecules          MOL_CREATION

