SimulationType                MonteCarlo
NumberOfCycles                N_cycles
NumberOfInitializationCycles  N_init
PrintPropertiesEvery          N_print
RestartFile                   no  

Forcefield                    FORCE_FIELD

Framework 0
ChargeMethod None
FrameworkName Arg
CutOffVDW CUTOFF
UnitCells UNITCELL
ExternalTemperature TEMPERATURE
ExternalPressure PRESSURES

NumberOfGrids N_ATOMS
GridTypes ATOMS
SpacingVDWGrid 0.1
SpacingCoulombGrid 0.1
UseTabularGrid yes
