SimulationType                MonteCarlo
NumberOfCycles                N_cycles
NumberOfInitializationCycles  N_init
PrintPropertiesEvery          N_print
RestartFile                   no

Forcefield                    UFF

Framework 0
FrameworkName Arg
UnitCells UNITCELL
ExternalTemperature 298.0

Component 0 MoleculeName                     helium
            MoleculeDefinition               TraPPE
            WidomInsertion                   1.0
            CreateNumberOfMolecules          0
