SimulationType                MonteCarlo
NumberOfCycles                N_cycles
NumberOfInitializationCycles  N_init
PrintPropertiesEvery          N_print
RestartFile                   no

Forcefield                    FORCE_FIELD

Component 0 MoleculeName                     MOLECULE
            MoleculeDefinition               TraPPE
            WidomInsertion                   1.0
            CreateNumberOfMolecules          0
