SimulationType                MonteCarlo
NumberOfCycles                N_cycles
NumberOfInitializationCycles  N_init
RestartFile                   no

Forcefield                    FORCE_FIELD
