SimulationType                MonteCarlo
NumberOfCycles                0
RestartFile                   no

Forcefield                    FORCEFIELD

Framework 0
FrameworkName Arg
UnitCells 1 1 1
ExternalTemperature 298.0

Component 0 MoleculeName                     helium
            MoleculeDefinition               TraPPE
            CreateNumberOfMolecules          0
